(set-info :smt-lib-version 2.6)
(set-logic UFNIA)
(set-info :source |
Generated by: Geoff Sutcliffe
Generated on: 2026-03-11
Generator: TPTPWorld
Application: Benchmarking automated theorem provers
Time limit: 120.0

These benchmarks are translations from the TPTP Library (Thousands of
Problems for Theorem Provers), see http://www.cs.miami.edu/~tptp/

The TPTP is maintained by Geoff Sutcliffe, and he contributed this
selection of benchmarks to SMT-LIB.  They were exported from the
v9.2.1 realease of TPTP.
|)
(set-info :category "industrial")
(set-info :status unknown)
; SZS status Success
(declare-sort $$unsorted 0)
(declare-sort tptp.uni 0)
(declare-sort tptp.ty 0)
(declare-fun tptp.sort (tptp.ty tptp.uni) Bool)
(declare-fun tptp.witness (tptp.ty) tptp.uni)
(assert (forall ((A tptp.ty)) (tptp.sort A (tptp.witness A))))
(declare-fun tptp.int () tptp.ty)
(declare-fun tptp.real () tptp.ty)
(declare-sort tptp.bool 0)
(declare-fun tptp.bool1 () tptp.ty)
(declare-fun tptp.true () tptp.bool)
(declare-fun tptp.false () tptp.bool)
(declare-fun tptp.match_bool (tptp.ty tptp.bool tptp.uni tptp.uni) tptp.uni)
(assert (forall ((A tptp.ty) (X tptp.bool) (X1 tptp.uni) (X2 tptp.uni)) (tptp.sort A (tptp.match_bool A X X1 X2))))
(assert (forall ((A tptp.ty) (Z tptp.uni) (Z1 tptp.uni)) (=> (tptp.sort A Z) (= (tptp.match_bool A tptp.true Z Z1) Z))))
(assert (forall ((A tptp.ty) (Z tptp.uni) (Z1 tptp.uni)) (=> (tptp.sort A Z1) (= (tptp.match_bool A tptp.false Z Z1) Z1))))
(assert (not (= tptp.true tptp.false)))
(assert (forall ((U tptp.bool)) (or (= U tptp.true) (= U tptp.false))))
(declare-sort tptp.tuple0 0)
(declare-fun tptp.tuple01 () tptp.ty)
(declare-fun tptp.tuple02 () tptp.tuple0)
(assert (forall ((U tptp.tuple0)) (= U tptp.tuple02)))
(declare-fun tptp.qtmark () tptp.ty)
(assert (forall ((X Int) (Y Int) (Z Int)) (=> (<= X Y) (=> (<= 0 Z) (<= (* X Z) (* Y Z))))))
(declare-fun tptp.ref (tptp.ty) tptp.ty)
(declare-fun tptp.mk_ref (tptp.ty tptp.uni) tptp.uni)
(assert (forall ((A tptp.ty) (X tptp.uni)) (tptp.sort (tptp.ref A) (tptp.mk_ref A X))))
(declare-fun tptp.contents (tptp.ty tptp.uni) tptp.uni)
(assert (forall ((A tptp.ty) (X tptp.uni)) (tptp.sort A (tptp.contents A X))))
(assert (forall ((A tptp.ty) (U tptp.uni)) (=> (tptp.sort A U) (= (tptp.contents A (tptp.mk_ref A U)) U))))
(assert (forall ((A tptp.ty) (U tptp.uni)) (=> (tptp.sort (tptp.ref A) U) (= U (tptp.mk_ref A (tptp.contents A U))))))
(declare-fun tptp.map (tptp.ty tptp.ty) tptp.ty)
(declare-fun tptp.get (tptp.ty tptp.ty tptp.uni tptp.uni) tptp.uni)
(assert (forall ((A tptp.ty) (B tptp.ty) (X tptp.uni) (X1 tptp.uni)) (tptp.sort B (tptp.get B A X X1))))
(declare-fun tptp.set (tptp.ty tptp.ty tptp.uni tptp.uni tptp.uni) tptp.uni)
(assert (forall ((A tptp.ty) (B tptp.ty) (X tptp.uni) (X1 tptp.uni) (X2 tptp.uni)) (tptp.sort (tptp.map A B) (tptp.set B A X X1 X2))))
(assert (forall ((A tptp.ty) (B tptp.ty) (M tptp.uni) (A1 tptp.uni) (A2 tptp.uni) (B1 tptp.uni)) (=> (tptp.sort B B1) (=> (= A1 A2) (= (tptp.get B A (tptp.set B A M A1 B1) A2) B1)))))
(assert (forall ((A tptp.ty) (B tptp.ty) (M tptp.uni) (A1 tptp.uni) (A2 tptp.uni)) (=> (tptp.sort A A1) (=> (tptp.sort A A2) (forall ((B1 tptp.uni)) (=> (not (= A1 A2)) (= (tptp.get B A (tptp.set B A M A1 B1) A2) (tptp.get B A M A2))))))))
(declare-fun tptp.const (tptp.ty tptp.ty tptp.uni) tptp.uni)
(assert (forall ((A tptp.ty) (B tptp.ty) (X tptp.uni)) (tptp.sort (tptp.map A B) (tptp.const B A X))))
(assert (forall ((A tptp.ty) (B tptp.ty) (B1 tptp.uni) (A1 tptp.uni)) (=> (tptp.sort B B1) (= (tptp.get B A (tptp.const B A B1) A1) B1))))
(declare-fun tptp.array (tptp.ty) tptp.ty)
(declare-fun tptp.mk_array (tptp.ty Int tptp.uni) tptp.uni)
(assert (forall ((A tptp.ty) (X Int) (X1 tptp.uni)) (tptp.sort (tptp.array A) (tptp.mk_array A X X1))))
(declare-fun tptp.length (tptp.ty tptp.uni) Int)
(assert (forall ((A tptp.ty) (U Int) (U1 tptp.uni)) (= (tptp.length A (tptp.mk_array A U U1)) U)))
(declare-fun tptp.elts (tptp.ty tptp.uni) tptp.uni)
(assert (forall ((A tptp.ty) (X tptp.uni)) (tptp.sort (tptp.map tptp.int A) (tptp.elts A X))))
(assert (forall ((A tptp.ty) (U Int) (U1 tptp.uni)) (=> (tptp.sort (tptp.map tptp.int A) U1) (= (tptp.elts A (tptp.mk_array A U U1)) U1))))
(assert (forall ((A tptp.ty) (U tptp.uni)) (= U (tptp.mk_array A (tptp.length A U) (tptp.elts A U)))))
(declare-fun tptp.get1 (tptp.ty tptp.uni Int) tptp.uni)
(assert (forall ((A tptp.ty) (X tptp.uni) (X1 Int)) (tptp.sort A (tptp.get1 A X X1))))
(declare-fun tptp.t2tb (Int) tptp.uni)
(assert (forall ((X Int)) (tptp.sort tptp.int (tptp.t2tb X))))
(declare-fun tptp.tb2t (tptp.uni) Int)
(assert (forall ((I Int)) (= (tptp.tb2t (tptp.t2tb I)) I)))
(assert (forall ((J tptp.uni)) (= (tptp.t2tb (tptp.tb2t J)) J)))
(assert (forall ((A tptp.ty) (A1 tptp.uni) (I Int)) (= (tptp.get1 A A1 I) (tptp.get A tptp.int (tptp.elts A A1) (tptp.t2tb I)))))
(declare-fun tptp.set1 (tptp.ty tptp.uni Int tptp.uni) tptp.uni)
(assert (forall ((A tptp.ty) (X tptp.uni) (X1 Int) (X2 tptp.uni)) (tptp.sort (tptp.array A) (tptp.set1 A X X1 X2))))
(assert (forall ((A tptp.ty) (A1 tptp.uni) (I Int) (V tptp.uni)) (= (tptp.set1 A A1 I V) (tptp.mk_array A (tptp.length A A1) (tptp.set A tptp.int (tptp.elts A A1) (tptp.t2tb I) V)))))
(declare-fun tptp.make (tptp.ty Int tptp.uni) tptp.uni)
(assert (forall ((A tptp.ty) (X Int) (X1 tptp.uni)) (tptp.sort (tptp.array A) (tptp.make A X X1))))
(assert (forall ((A tptp.ty) (N Int) (V tptp.uni)) (= (tptp.make A N V) (tptp.mk_array A N (tptp.const A tptp.int V)))))
(declare-fun tptp.n () Int)
(assert (< 0 tptp.n))
(declare-fun tptp.f (Int) Int)
(assert (forall ((K Int)) (let ((_let_1 (tptp.f K))) (=> (and (< 0 K) (< K tptp.n)) (and (<= 0 _let_1) (< _let_1 K))))))
(declare-fun tptp.path (Int Int) Bool)
(assert (tptp.path 0 0))
(assert (forall ((I Int)) (=> (and (<= 0 I) (< I tptp.n)) (forall ((D Int) (J Int)) (=> (tptp.path D J) (=> (and (<= (tptp.f I) J) (< J I)) (tptp.path (+ D 1) I)))))))
(assert (forall ((Z Int) (Z1 Int)) (=> (tptp.path Z Z1) (or (and (= Z 0) (= Z1 0)) (exists ((I Int)) (and (<= 0 I) (< I tptp.n) (exists ((D Int) (J Int)) (and (tptp.path D J) (<= (tptp.f I) J) (< J I) (= Z (+ D 1)) (= Z1 I)))))))))
(declare-fun tptp.distance (Int Int) Bool)
(assert (forall ((D Int) (I Int)) (= (tptp.distance D I) (and (tptp.path D I) (forall ((Dqt Int)) (=> (tptp.path Dqt I) (<= D Dqt)))))))
(declare-sort tptp.map_int_int 0)
(declare-fun tptp.t2tb1 (tptp.map_int_int) tptp.uni)
(assert (forall ((X tptp.map_int_int)) (tptp.sort (tptp.map tptp.int tptp.int) (tptp.t2tb1 X))))
(declare-fun tptp.tb2t1 (tptp.uni) tptp.map_int_int)
(assert (forall ((I tptp.map_int_int)) (= (tptp.tb2t1 (tptp.t2tb1 I)) I)))
(assert (forall ((J tptp.uni)) (= (tptp.t2tb1 (tptp.tb2t1 J)) J)))
(assert (let ((_let_1 (<= 0 tptp.n))) (not (=> _let_1 (=> _let_1 (=> (and (<= 0 0) (< 0 tptp.n)) (forall ((G tptp.map_int_int)) (let ((_let_1 (<= 0 tptp.n))) (let ((_let_2 (tptp.t2tb 0))) (=> (and _let_1 (= G (tptp.tb2t1 (tptp.set tptp.int tptp.int (tptp.const tptp.int tptp.int _let_2) _let_2 (tptp.t2tb (- 1)))))) (=> _let_1 (=> _let_1 (=> (<= 1 (- tptp.n 1)) (forall ((Count Int) (D tptp.map_int_int) (G1 tptp.map_int_int) (I Int)) (let ((_let_1 (- I 1))) (let ((_let_2 (tptp.t2tb1 D))) (let ((_let_3 (tptp.t2tb 0))) (=> (and (<= 1 I) (<= I (- tptp.n 1))) (=> (and (= (tptp.tb2t (tptp.get tptp.int tptp.int _let_2 _let_3)) 0) (= (tptp.tb2t (tptp.get tptp.int tptp.int (tptp.t2tb1 G1) _let_3)) (- 1)) (<= (+ Count (tptp.tb2t (tptp.get tptp.int tptp.int _let_2 (tptp.t2tb _let_1)))) _let_1) (forall ((K Int)) (let ((_let_1 (tptp.t2tb K))) (let ((_let_2 (tptp.t2tb1 G1))) (let ((_let_3 (tptp.get tptp.int tptp.int _let_2 _let_1))) (let ((_let_4 (tptp.t2tb1 D))) (let ((_let_5 (tptp.tb2t (tptp.get tptp.int tptp.int _let_4 _let_1)))) (let ((_let_6 (tptp.tb2t _let_3))) (let ((_let_7 (tptp.f K))) (=> (and (< 0 K) (< K I)) (and (< (tptp.tb2t (tptp.get tptp.int tptp.int _let_2 _let_3)) _let_7) (<= _let_7 _let_6) (< _let_6 K) (< 0 _let_5) (= _let_5 (+ (tptp.tb2t (tptp.get tptp.int tptp.int _let_4 _let_3)) 1)) (forall ((Kqt Int)) (let ((_let_1 (tptp.t2tb1 D))) (let ((_let_2 (tptp.get tptp.int tptp.int (tptp.t2tb1 G1) (tptp.t2tb K)))) (=> (and (< (tptp.tb2t _let_2) Kqt) (< Kqt K)) (< (tptp.tb2t (tptp.get tptp.int tptp.int _let_1 _let_2)) (tptp.tb2t (tptp.get tptp.int tptp.int _let_1 (tptp.t2tb Kqt)))))))))))))))))) (forall ((K Int)) (=> (and (<= 0 K) (< K I)) (tptp.path (tptp.tb2t (tptp.get tptp.int tptp.int (tptp.t2tb1 D) (tptp.t2tb K))) K)))) (forall ((J Int) (Count1 Int)) (let ((_let_1 (tptp.t2tb J))) (let ((_let_2 (tptp.f I))) (=> (and (<= _let_2 J) (< J I) (<= (+ Count1 (tptp.tb2t (tptp.get tptp.int tptp.int (tptp.t2tb1 D) _let_1))) (- I 1)) (forall ((K Int)) (let ((_let_1 (tptp.t2tb1 D))) (=> (and (< J K) (< K I)) (< (tptp.tb2t (tptp.get tptp.int tptp.int _let_1 (tptp.t2tb J))) (tptp.tb2t (tptp.get tptp.int tptp.int _let_1 (tptp.t2tb K)))))))) (=> (and (<= 0 tptp.n) (<= 0 J) (< J tptp.n)) (=> (<= _let_2 (tptp.tb2t (tptp.get tptp.int tptp.int (tptp.t2tb1 G1) _let_1))) (forall ((Count2 Int)) (=> (= Count2 (+ Count1 1)) (=> (and (<= 0 J) (< J tptp.n)) (forall ((J1 Int)) (=> (= J1 (tptp.tb2t (tptp.get tptp.int tptp.int (tptp.t2tb1 G1) (tptp.t2tb J)))) (forall ((K Int)) (let ((_let_1 (tptp.t2tb1 D))) (=> (and (< J1 K) (< K I)) (< (tptp.tb2t (tptp.get tptp.int tptp.int _let_1 (tptp.t2tb J1))) (tptp.tb2t (tptp.get tptp.int tptp.int _let_1 (tptp.t2tb K)))))))))))))))))))))))))))))))))))))
(check-sat)
(exit)
